(set-info :smt-lib-version 2.6)
(set-logic QF_UFLRA)
(set-info :source |
MathSat group

|)
(set-info :category "random")
(set-info :status unsat)
(declare-fun x0 () Real)
(declare-fun x1 () Real)
(declare-fun x2 () Real)
(declare-fun x3 () Real)
(declare-fun x4 () Real)
(declare-fun x5 () Real)
(declare-fun x6 () Real)
(declare-fun x7 () Real)
(declare-fun x8 () Real)
(declare-fun x9 () Real)
(declare-fun x10 () Real)
(declare-fun x11 () Real)
(declare-fun x12 () Real)
(declare-fun x13 () Real)
(declare-fun x14 () Real)
(declare-fun x15 () Real)
(declare-fun x16 () Real)
(declare-fun x17 () Real)
(declare-fun x18 () Real)
(declare-fun x19 () Real)
(declare-fun x20 () Real)
(declare-fun x21 () Real)
(declare-fun x22 () Real)
(declare-fun x23 () Real)
(declare-fun x24 () Real)
(declare-fun x25 () Real)
(declare-fun x26 () Real)
(declare-fun x27 () Real)
(declare-fun x28 () Real)
(declare-fun x29 () Real)
(declare-fun f0_1 (Real) Real)
(declare-fun f0_2 (Real Real) Real)
(declare-fun f0_3 (Real Real Real) Real)
(declare-fun f0_4 (Real Real Real Real) Real)
(declare-fun P0 () Bool)
(declare-fun P1 () Bool)
(declare-fun P2 () Bool)
(declare-fun P3 () Bool)
(declare-fun P4 () Bool)
(declare-fun P5 () Bool)
(declare-fun P6 () Bool)
(declare-fun P7 () Bool)
(declare-fun P8 () Bool)
(declare-fun P9 () Bool)
(declare-fun P10 () Bool)
(declare-fun P11 () Bool)
(declare-fun P12 () Bool)
(declare-fun P13 () Bool)
(declare-fun P14 () Bool)
(declare-fun P15 () Bool)
(declare-fun P16 () Bool)
(declare-fun P17 () Bool)
(declare-fun P18 () Bool)
(declare-fun P19 () Bool)
(declare-fun P20 () Bool)
(declare-fun P21 () Bool)
(declare-fun P22 () Bool)
(declare-fun P23 () Bool)
(declare-fun P24 () Bool)
(declare-fun P25 () Bool)
(declare-fun P26 () Bool)
(declare-fun P27 () Bool)
(declare-fun P28 () Bool)
(declare-fun P29 () Bool)
(assert (let ((?v_60 (< (- (- (* 30 x16) (* 36 x19)) (* 5 x6)) 42)) (?v_43 (<= (- (- (* 2 x10) (* 28 x6)) (* 19 x11)) 36)) (?v_101 (= (- (+ (* 29 x14) (* 25 x20)) (* 20 x4)) 39)) (?v_35 (f0_1 x9))) (let ((?v_64 (distinct x17 ?v_35)) (?v_134 (= x27 (f0_1 x29))) (?v_38 (= (f0_2 x20 x5) x3)) (?v_25 (f0_1 x21))) (let ((?v_49 (= ?v_25 x1)) (?v_29 (f0_1 x0))) (let ((?v_19 (= ?v_25 ?v_29)) (?v_5 (f0_1 x10))) (let ((?v_12 (distinct (f0_2 x7 x15) ?v_5)) (?v_21 (f0_1 x28))) (let ((?v_24 (distinct x6 ?v_21)) (?v_7 (f0_1 x14)) (?v_15 (f0_1 x2))) (let ((?v_86 (distinct ?v_7 ?v_15)) (?v_129 (distinct ?v_7 (f0_2 x29 x3))) (?v_27 (distinct x13 x8)) (?v_52 (= x16 ?v_29)) (?v_75 (distinct (f0_2 x13 x12) x7)) (?v_54 (= x1 x22)) (?v_28 (= x24 x28)) (?v_90 (= (f0_2 x16 x17) ?v_25)) (?v_31 (distinct ?v_15 x27)) (?v_34 (f0_1 x20))) (let ((?v_30 (= (f0_2 x1 x0) ?v_34)) (?v_137 (= (f0_2 x15 x26) (f0_2 x12 x12))) (?v_50 (f0_1 x11))) (let ((?v_96 (distinct ?v_50 x18)) (?v_9 (distinct ?v_7 (f0_2 x11 x23))) (?v_74 (distinct (f0_2 x19 x21) ?v_21)) (?v_41 (= ?v_34 ?v_35)) (?v_139 (= ?v_50 (f0_2 x19 x7))) (?v_79 (f0_1 x13))) (let ((?v_85 (distinct (f0_1 x22) ?v_79)) (?v_104 (= (f0_2 x4 x9) x15)) (?v_68 (distinct x0 (f0_1 x6))) (?v_83 (= (f0_2 x7 x9) x21)) (?v_32 (= x0 ?v_79)) (?v_65 (distinct (f0_1 x1) (f0_2 x29 x27))) (?v_16 (distinct ?v_5 ?v_15))) (let ((?v_0 (not ?v_83)) (?v_77 (not ?v_129)) (?v_2 (not P12)) (?v_87 (not P15)) (?v_3 (not P27)) (?v_17 (not P10)) (?v_128 (not ?v_54)) (?v_92 (not P5)) (?v_61 (not ?v_96)) (?v_33 (not P24)) (?v_121 (not ?v_64)) (?v_106 (not P21)) (?v_66 (not P13)) (?v_62 (not ?v_43)) (?v_151 (not P29)) (?v_95 (not P25)) (?v_130 (not ?v_9)) (?v_13 (not P2)) (?v_81 (not P26)) (?v_124 (not P0)) (?v_73 (not P6)) (?v_53 (not P22)) (?v_72 (not ?v_24)) (?v_46 (not ?v_74)) (?v_51 (not P23)) (?v_44 (not P19)) (?v_47 (not ?v_90)) (?v_39 (not ?v_65)) (?v_78 (not ?v_19)) (?v_70 (not ?v_52)) (?v_88 (not ?v_31)) (?v_40 (not P4)) (?v_153 (not P18)) (?v_116 (not P20)) (?v_42 (not P16)) (?v_140 (not P3)) (?v_118 (not ?v_41)) (?v_57 (not P1)) (?v_142 (not ?v_30)) (?v_105 (not ?v_101)) (?v_136 (not ?v_139)) (?v_55 (not P28)) (?v_131 (not P17)) (?v_147 (not ?v_60)) (?v_82 (not ?v_104)) (?v_127 (not ?v_28)) (?v_89 (not P11)) (?v_97 (not ?v_32)) (?v_110 (not ?v_85)) (?v_99 (not P14)) (?v_107 (not ?v_16)) (?v_150 (not ?v_12)) (?v_123 (not P7)) (?v_117 (not ?v_68)) (?v_135 (not ?v_75)) (?v_146 (not P9)) (?v_141 (not ?v_86)) (?v_157 (not ?v_38)) (?v_148 (not P8)) (?v_160 (not ?v_137)) (?v_154 (not ?v_27)) (?v_152 (not ?v_134)) (?v_158 (not ?v_49)) (?v_63 (< (+ (- (* 2 x5) x26) (* 42 x29)) 6)) (?v_126 (< (+ (* 37 x12) (* 39 x11) (* 5 x10)) 4))) (let ((?v_71 (not ?v_126)) (?v_102 (<= (+ (* 24 x19) x18 (* 41 x17)) 24))) (let ((?v_159 (not ?v_102)) (?v_122 (not ?v_63)) (?v_80 (< (- (* 30 x9) (* 17 x14)) 5))) (let ((?v_93 (not ?v_80)) (?v_115 (<= (- (+ x16 (* 25 x14)) (* 33 x29)) 10))) (let ((?v_113 (not ?v_115)) (?v_114 (<= (- (* 37 x2) (* 24 x29)) 44))) (let ((?v_155 (not ?v_114)) (?v_156 (or ?v_113 ?v_118)) (?v_14 (<= (- (+ (* (- 41) x1) (* 4 x11)) (* 20 x8)) 0)) (?v_4 (distinct (- (+ (* (- 14) x2) (* 39 x22)) (* 12 x8)) 39)) (?v_1 (<= (+ (* (- 28) x21) (* 26 x18) (* 13 x2)) (- 14))) (?v_109 (<= (- (+ (* 39 x15) (* 32 x3)) 0) (- 19)))) (let ((?v_8 (not ?v_109)) (?v_138 (< (+ (- (* (- 22) x7) (* 9 x24)) (* 18 x14)) (- 37)))) (let ((?v_69 (not ?v_138)) (?v_58 (not ?v_1)) (?v_23 (<= (+ (- (* (- 8) x22) (* 9 x21)) (* 27 x19)) 32)) (?v_59 (= (- (+ (* (- 5) x4) (* 23 x15)) (* 19 x8)) (- 10)))) (let ((?v_48 (not ?v_59)) (?v_45 (<= (- (+ (* 3 x17) (* 13 x4)) (* 39 x18)) (- 28))) (?v_6 (= (- (+ (* 32 x12) (* 18 x4)) (* 19 x27)) (- 2)))) (let ((?v_10 (not ?v_6)) (?v_18 (< (- (+ (* (- 23) x22) (* 29 x9)) (* 24 x6)) (- 9)))) (let ((?v_20 (not ?v_18)) (?v_26 (< (- (- (* (- 1) x17) (* 41 x19)) x4) 38)) (?v_11 (< (+ (* 8 x26) (* 7 x4) (* 27 x1)) (- 13))) (?v_22 (< (- (+ (* 18 x17) (* 3 x22)) (* 35 x29)) (- 39))) (?v_149 (not ?v_14)) (?v_144 (< (- (- (* (- 31) x10) (* 13 x26)) (* 30 x6)) (- 38)))) (let ((?v_119 (not ?v_144)) (?v_91 (not ?v_22)) (?v_108 (not ?v_23)) (?v_37 (< (- (- (* (- 1) x7) (* 18 x2)) (* 2 x23)) (- 38)))) (let ((?v_76 (not ?v_37)) (?v_67 (<= (+ (- (* 37 x20) (* 33 x12)) (* 29 x4)) (- 19)))) (let ((?v_100 (not ?v_67)) (?v_36 (not ?v_11)) (?v_56 (< (+ (- (* (- 31) x13) (* 8 x25)) (* 38 x19)) 18))) (let ((?v_84 (not ?v_56)) (?v_133 (not ?v_4)) (?v_112 (< (+ (- (* (- 7) x9) (* 29 x8)) (* 16 x29)) 21)) (?v_103 (<= (- (+ (* (- 19) x23) (* 14 x5)) (* 36 x27)) (- 33))) (?v_98 (< (+ (* 28 x2) x25) (- 33))) (?v_111 (not ?v_26)) (?v_94 (<= (- (+ (* 9 x8) (* 31 x17)) (* 34 x10)) (- 25)))) (let ((?v_143 (not ?v_94)) (?v_125 (not ?v_103)) (?v_120 (not ?v_45)) (?v_132 (not ?v_112)) (?v_145 (not ?v_98))) (and (and (and (and (and (and (and (and (and (and (and (and (and (and (and (and (and (and (and (and (and (and (and (and (and (and (and (and (and (and (and (and (and (and (and (and (and (and (and (and (and (and (and (and (and (and (and (and (and (and (and (and (and (and (and (and (and (and (and (and (and (and (and (and (and (and (and (and (and (and (and (and (and (and (and (and (and (and (and (and (and (and (and (and (and (and (and (and (and (and (and (and (and (and (and (and (and (and (and (and (and (and (and (and (and (and (and (and (and (and (and (and (and (and (and (and (and (and (and (and (and (and (and (and (and (and (and (and (and (and (and (and (and (and (and (and (and (and (and (and (and (and (and (and (and (and (and (and (and (and (and (and (and (and (and (and (and (and (and (and (and (and (and (and (and (and (and (and (and (and (and (and (and (and (and (and (and (and (and (and (and (and (and (and (and (and (and (and (and (and (and (and (and (and (and (and (and (and (and (and (and (and (and (and (and (and (and (and (and (and (and (and (and (and (and (and (and (and (and (and (and (and (and (and (and (and (and (and (and (and (and (and (and (and (and (and (and (and (and (and (and (and (and (and (and (and (and (and (and (and (and (and (and (and (and (and (and (and (and (and (and (and (and (and (and (and (and (and (and (and (and (and (and (and (and (and (and (and (and (and (and (and (and (and (and (and (and (and (and (and (and (and (and (and (and (and (and (and (and (and (and (and (and (and (and (and (and (and (and (and (and (and (and (and (and (and (and (and (and (and (and (and (and (and (and (and (and (and (and (and (and (and (and (and (and (and (and (and (and (and (and (and (and (and (and (and (and (and (and (and (and (and (and (and (and (and (and (and (and (and (and (and (and (and (and (and (and (and (and (and (and (and (and (and (and (and (and (and (and (and (and (and (and (and (and (and (and (and (and (and (and (and (and (and (and (and (and (and (and (and (and (and (and (and (and (and (and (and (and (and (and (and (and (and (and (and (and (and (and (and (and (and (and (and (and (and (and (and (and (and (and (and (and (and (and (and (and (and (and (and (and (and (and (and (and (and (and (and (and (or (or ?v_14 ?v_28) ?v_0) (or (or ?v_4 ?v_1) ?v_0)) (or (or ?v_77 P26) ?v_8)) (or (or ?v_2 P23) ?v_87)) (or (or P12 ?v_3) ?v_27)) (or (or ?v_69 ?v_17) ?v_128)) (or (or ?v_0 ?v_92) ?v_61)) (or (or ?v_58 ?v_33) ?v_2)) (or (or ?v_63 P13) ?v_23)) (or (or ?v_3 ?v_48) ?v_16)) (or (or ?v_4 ?v_45) ?v_10)) (or (or ?v_38 ?v_121) ?v_71)) (or (or P9 ?v_106) ?v_66)) (or (or ?v_62 ?v_12) ?v_20)) (or (or ?v_6 P26) ?v_151)) (or (or ?v_26 ?v_95) ?v_9)) (or (or ?v_8 ?v_11) ?v_130)) (or (or ?v_10 ?v_4) ?v_11)) (or (or ?v_13 P1) ?v_12)) (or (or ?v_0 P2) ?v_22)) (or (or ?v_13 ?v_19) ?v_81)) (or (or ?v_124 P28) ?v_149)) (or (or ?v_119 ?v_31) ?v_16)) (or (or P24 ?v_73) P21)) (or (or ?v_8 ?v_17) ?v_134)) (or (or ?v_53 P24) P29)) (or (or P17 ?v_72) ?v_18)) (or (or ?v_60 ?v_19) ?v_20)) (or (or ?v_46 ?v_16) ?v_91)) (or (or ?v_51 ?v_20) ?v_108)) (or (or P3 ?v_32) ?v_24)) (or (or ?v_44 ?v_47) ?v_39)) (or (or ?v_26 ?v_68) ?v_27)) (or (or ?v_24 P10) ?v_78)) (or (or P10 ?v_30) ?v_76)) (or (or ?v_159 ?v_75) ?v_28)) (or (or ?v_70 ?v_30) ?v_88)) (or (or P6 ?v_32) ?v_17)) (or (or ?v_4 ?v_40) ?v_33)) (or (or ?v_41 ?v_100) ?v_12)) (or (or ?v_36 ?v_49) ?v_153)) (or (or ?v_116 ?v_36) ?v_32)) (or (or P28 ?v_37) ?v_6)) (or (or ?v_42 P23) ?v_38)) (or (or ?v_140 ?v_39) ?v_40)) (or (or ?v_118 ?v_42) ?v_43)) (or (or ?v_22 ?v_30) ?v_20)) (or (or ?v_44 ?v_57) ?v_45)) (or (or ?v_46 ?v_23) ?v_41)) (or (or ?v_32 ?v_19) P13)) (or (or P25 ?v_142) ?v_105)) (or (or ?v_47 P20) ?v_48)) (or (or ?v_49 ?v_136) ?v_51)) (or (or P29 ?v_52) ?v_51)) (or (or P3 ?v_84) ?v_55)) (or (or ?v_53 ?v_53) ?v_54)) (or (or P20 ?v_131) P14)) (or (or ?v_55 ?v_30) ?v_52)) (or (or P13 ?v_56) P8)) (or (or ?v_36 ?v_57) ?v_58)) (or (or ?v_59 ?v_133) ?v_147)) (or (or ?v_61 P13) ?v_56)) (or (or P13 ?v_62) ?v_122)) (or (or ?v_14 ?v_64) ?v_11)) (or (or P1 P3) ?v_38)) (or (or P19 ?v_33) ?v_65)) (or (or ?v_66 ?v_82) ?v_23)) (or (or ?v_67 ?v_127) ?v_68)) (or (or P1 ?v_33) ?v_69)) (or (or P10 ?v_49) ?v_112)) (or (or ?v_70 ?v_71) ?v_72)) (or (or ?v_103 ?v_36) ?v_39)) (or (or ?v_73 ?v_20) ?v_24)) (or (or ?v_74 ?v_75) ?v_76)) (or (or ?v_77 ?v_78) ?v_85)) (or (or ?v_27 P18) ?v_69)) (or (or ?v_80 ?v_89) ?v_98)) (or (or ?v_97 ?v_93) ?v_38)) (or (or ?v_81 ?v_82) ?v_113)) (or (or ?v_83 P6) ?v_84)) (or (or ?v_63 P18) ?v_110)) (or (or ?v_111 ?v_22) ?v_86)) (or (or P6 ?v_86) P21)) (or (or ?v_99 ?v_77) ?v_75)) (or (or ?v_87 ?v_51) ?v_75)) (or (or ?v_88 P19) ?v_89)) (or (or ?v_23 ?v_12) ?v_90)) (or (or ?v_91 ?v_94) ?v_92)) (or (or ?v_54 P24) ?v_8)) (or (or ?v_93 ?v_143) ?v_95)) (or (or P20 ?v_96) P12)) (or (or P2 ?v_97) ?v_75)) (or (or ?v_98 ?v_30) ?v_99)) (or (or P1 P26) ?v_100)) (or (or ?v_101 ?v_102) ?v_125)) (or (or ?v_48 P24) ?v_104)) (or (or ?v_81 ?v_92) ?v_26)) (or (or ?v_86 ?v_39) ?v_92)) (or (or ?v_91 ?v_31) ?v_32)) (or (or P20 ?v_43) ?v_44)) (or (or ?v_107 ?v_33) ?v_105)) (or (or P0 ?v_74) ?v_54)) (or (or ?v_1 ?v_1) ?v_106)) (or (or ?v_107 P28) ?v_150)) (or (or ?v_98 P15) P3)) (or (or P6 ?v_108) ?v_58)) (or (or ?v_11 P9) P18)) (or (or ?v_31 P23) ?v_109)) (or (or ?v_53 ?v_58) ?v_10)) (or (or ?v_63 P23) ?v_27)) (or (or ?v_56 ?v_110) ?v_83)) (or (or ?v_52 P10) ?v_123)) (or (or ?v_3 P9) ?v_13)) (or (or ?v_37 ?v_42) ?v_75)) (or (or ?v_71 ?v_72) ?v_88)) (or (or ?v_12 ?v_0) P25)) (or (or ?v_12 ?v_77) ?v_19)) (or (or ?v_120 ?v_16) ?v_109)) (or (or ?v_111 ?v_12) ?v_114)) (or (or ?v_107 P23) ?v_39)) (or (or ?v_97 ?v_14) ?v_111)) (or (or ?v_40 ?v_132) ?v_54)) (or (or P22 ?v_42) ?v_38)) (or (or ?v_56 ?v_43) ?v_113)) (or (or ?v_6 P8) ?v_107)) (or (or ?v_155 ?v_69) ?v_94)) (or (or ?v_17 P1) ?v_84)) (or (or P5 ?v_44) ?v_36)) (or (or ?v_101 ?v_61) P29)) (or (or P15 ?v_98) ?v_4)) (or (or ?v_65 P27) ?v_117)) (or (or ?v_55 ?v_113) ?v_88)) (or (or ?v_41 ?v_115) ?v_116)) (or (or P11 ?v_117) ?v_113)) (or (or ?v_75 ?v_118) P4)) (or (or ?v_74 ?v_37) ?v_135)) (or (or ?v_73 P24) ?v_52)) (or (or ?v_14 ?v_68) ?v_97)) (or (or ?v_33 ?v_38) ?v_116)) (or (or ?v_16 ?v_119) P10)) (or (or ?v_120 P24) ?v_121)) (or (or P11 P12) P16)) (or (or ?v_22 ?v_122) ?v_77)) (or (or ?v_27 ?v_16) ?v_100)) (or (or ?v_23 ?v_33) ?v_75)) (or (or ?v_145 ?v_14) ?v_19)) (or (or ?v_137 ?v_106) ?v_28)) (or (or ?v_91 ?v_59) ?v_61)) (or (or ?v_123 P22) P10)) (or (or ?v_87 ?v_102) P20)) (or (or P18 P24) ?v_13)) (or (or ?v_38 P21) ?v_124)) (or (or ?v_125 ?v_53) ?v_75)) (or (or ?v_99 P27) P2)) (or (or P1 ?v_126) ?v_85)) (or (or ?v_71 P27) ?v_14)) (or (or ?v_111 ?v_103) ?v_72)) (or (or P29 ?v_88) ?v_66)) (or (or ?v_118 ?v_127) ?v_64)) (or (or ?v_146 ?v_141) ?v_67)) (or (or ?v_96 ?v_81) ?v_53)) (or (or ?v_128 ?v_12) ?v_63)) (or (or P18 ?v_78) ?v_85)) (or (or ?v_124 ?v_80) ?v_157)) (or (or P23 ?v_111) ?v_115)) (or (or ?v_119 ?v_82) ?v_84)) (or (or ?v_62 ?v_129) ?v_130)) (or (or ?v_131 ?v_120) ?v_40)) (or (or ?v_106 ?v_123) ?v_46)) (or (or ?v_31 ?v_132) P20)) (or (or ?v_47 P1) P13)) (or (or ?v_57 ?v_18) ?v_74)) (or (or ?v_48 ?v_86) ?v_133)) (or (or ?v_32 ?v_55) P16)) (or (or ?v_81 ?v_128) ?v_85)) (or (or ?v_17 ?v_119) ?v_43)) (or (or ?v_134 ?v_101) ?v_47)) (or (or ?v_62 ?v_11) ?v_28)) (or (or ?v_124 ?v_106) ?v_37)) (or (or ?v_88 ?v_92) ?v_0)) (or (or ?v_41 ?v_44) ?v_135)) (or (or P1 ?v_136) ?v_75)) (or (or ?v_92 ?v_95) ?v_137)) (or (or ?v_70 ?v_10) ?v_115)) (or (or ?v_64 ?v_55) P13)) (or (or ?v_22 ?v_136) ?v_28)) (or (or ?v_76 ?v_55) ?v_111)) (or (or ?v_135 ?v_120) ?v_22)) (or (or ?v_2 ?v_83) ?v_128)) (or (or ?v_26 ?v_129) ?v_138)) (or (or ?v_6 ?v_131) ?v_27)) (or (or P17 ?v_139) ?v_113)) (or (or P3 ?v_10) ?v_70)) (or (or ?v_16 ?v_134) ?v_63)) (or (or P9 P11) ?v_39)) (or (or ?v_99 P16) P1)) (or (or ?v_140 ?v_141) ?v_148)) (or (or ?v_116 ?v_135) ?v_90)) (or (or ?v_39 P18) ?v_69)) (or (or ?v_117 ?v_139) ?v_102)) (or (or ?v_142 ?v_56) ?v_9)) (or (or ?v_112 ?v_102) ?v_83)) (or (or ?v_132 ?v_143) ?v_49)) (or (or ?v_49 ?v_73) ?v_61)) (or (or ?v_27 ?v_96) ?v_65)) (or (or ?v_10 ?v_117) ?v_144)) (or (or ?v_110 ?v_77) ?v_42)) (or (or P22 ?v_103) ?v_70)) (or (or ?v_139 ?v_137) P19)) (or (or ?v_78 ?v_89) ?v_61)) (or (or P18 ?v_113) ?v_1)) (or (or ?v_68 P1) ?v_107)) (or (or P20 ?v_97) ?v_19)) (or (or ?v_91 ?v_145) ?v_127)) (or (or P21 ?v_140) ?v_61)) (or (or ?v_75 ?v_111) ?v_36)) (or (or ?v_121 ?v_36) ?v_128)) (or (or ?v_146 ?v_109) ?v_76)) (or (or ?v_116 ?v_127) ?v_147)) (or (or P21 ?v_24) ?v_58)) (or (or ?v_95 ?v_118) ?v_76)) (or (or ?v_145 ?v_148) P18)) (or (or ?v_91 ?v_138) ?v_149)) (or (or ?v_109 ?v_16) P7)) (or (or P17 ?v_150) P6)) (or (or ?v_90 ?v_123) ?v_96)) (or (or P9 ?v_58) P21)) (or (or ?v_84 ?v_132) ?v_124)) (or (or ?v_40 ?v_71) ?v_81)) (or (or ?v_107 ?v_122) ?v_36)) (or (or ?v_11 ?v_142) ?v_129)) (or (or ?v_23 ?v_51) ?v_17)) (or (or P28 ?v_63) P19)) (or (or ?v_86 ?v_0) ?v_160)) (or (or ?v_92 ?v_141) ?v_2)) (or (or ?v_148 ?v_49) ?v_110)) (or (or ?v_42 ?v_147) ?v_12)) (or (or ?v_24 P1) ?v_20)) (or (or ?v_32 ?v_125) P28)) (or (or ?v_61 ?v_49) ?v_105)) (or (or ?v_135 P28) ?v_118)) (or (or ?v_113 P23) ?v_37)) (or ?v_156 ?v_117)) (or (or ?v_104 ?v_97) ?v_87)) (or (or ?v_113 P21) ?v_68)) (or (or P23 ?v_150) ?v_45)) (or (or ?v_56 ?v_115) ?v_41)) (or (or ?v_101 ?v_92) ?v_41)) (or (or ?v_148 ?v_84) ?v_28)) (or (or ?v_41 ?v_36) ?v_154)) (or (or ?v_113 P18) P8)) (or (or ?v_72 ?v_148) ?v_121)) (or (or ?v_1 ?v_24) P26)) (or (or ?v_1 ?v_11) ?v_144)) (or (or ?v_107 ?v_101) ?v_9)) (or (or ?v_46 ?v_92) P17)) (or (or P21 P13) ?v_88)) (or (or P3 P25) ?v_151)) (or (or ?v_57 ?v_108) ?v_87)) (or (or ?v_93 ?v_107) ?v_71)) (or (or ?v_74 ?v_56) ?v_3)) (or (or ?v_125 P11) ?v_152)) (or (or P15 ?v_101) ?v_44)) (or (or P24 ?v_12) ?v_22)) (or (or P3 P22) ?v_135)) (or (or ?v_92 ?v_138) ?v_38)) (or (or ?v_90 P16) P7)) (or (or ?v_133 ?v_27) ?v_56)) (or (or P27 P22) ?v_40)) (or (or ?v_49 P20) ?v_55)) (or (or ?v_87 ?v_64) ?v_111)) (or (or ?v_24 ?v_152) ?v_94)) (or (or ?v_132 ?v_134) ?v_17)) (or (or ?v_73 ?v_70) ?v_99)) (or (or ?v_59 ?v_153) ?v_109)) (or (or ?v_105 ?v_87) ?v_65)) (or (or ?v_23 ?v_27) ?v_111)) (or (or ?v_130 P25) ?v_106)) (or (or ?v_124 ?v_158) P25)) (or (or P12 ?v_55) P29)) (or (or ?v_149 ?v_113) ?v_65)) (or (or ?v_61 ?v_23) ?v_131)) (or (or ?v_97 ?v_140) ?v_110)) (or (or ?v_45 ?v_83) ?v_62)) (or (or P29 ?v_125) ?v_10)) (or (or ?v_119 ?v_147) ?v_39)) (or (or ?v_57 ?v_12) ?v_49)) (or (or ?v_104 ?v_95) P5)) (or (or ?v_99 ?v_54) ?v_55)) (or (or ?v_134 P2) ?v_125)) (or (or ?v_128 ?v_110) ?v_104)) (or (or ?v_142 ?v_135) ?v_137)) (or (or ?v_23 ?v_153) ?v_137)) (or (or ?v_90 P19) ?v_54)) (or (or ?v_20 ?v_70) ?v_99)) (or (or ?v_119 ?v_39) ?v_122)) (or (or P1 ?v_120) ?v_73)) (or (or ?v_36 ?v_68) ?v_77)) (or (or P9 ?v_144) ?v_145)) (or (or ?v_153 ?v_68) ?v_147)) (or (or ?v_107 ?v_39) P4)) (or (or P10 ?v_134) ?v_27)) (or (or ?v_149 ?v_36) P2)) (or (or ?v_70 ?v_9) ?v_153)) (or (or ?v_121 P20) ?v_127)) (or (or P20 ?v_38) ?v_101)) (or (or ?v_113 P3) ?v_92)) (or (or ?v_154 ?v_106) ?v_145)) (or (or ?v_57 ?v_128) ?v_118)) (or (or ?v_143 ?v_23) ?v_112)) (or (or ?v_14 ?v_103) P21)) (or (or P26 ?v_109) ?v_116)) (or (or P16 ?v_63) ?v_9)) (or (or ?v_14 P10) ?v_125)) (or (or ?v_96 ?v_95) ?v_20)) (or (or P29 P23) ?v_125)) (or (or ?v_41 ?v_114) ?v_105)) (or (or ?v_64 ?v_61) ?v_1)) (or (or ?v_67 ?v_112) ?v_49)) (or (or ?v_20 ?v_137) ?v_131)) (or (or P17 ?v_85) ?v_84)) (or (or ?v_130 ?v_99) ?v_59)) (or (or ?v_30 ?v_51) P6)) (or (or P18 ?v_26) ?v_8)) (or (or ?v_71 ?v_55) ?v_14)) (or (or ?v_122 ?v_80) ?v_155)) (or (or ?v_60 ?v_103) ?v_116)) (or (or P10 ?v_116) ?v_47)) (or (or ?v_142 ?v_9) ?v_145)) (or (or P7 ?v_113) ?v_41)) (or (or P22 ?v_111) ?v_24)) (or (or P0 ?v_89) ?v_46)) (or (or ?v_118 ?v_102) ?v_24)) (or ?v_156 ?v_109)) (or (or P20 ?v_98) ?v_33)) (or (or ?v_39 ?v_52) ?v_84)) (or (or ?v_16 ?v_117) P0)) (or (or P0 P11) ?v_106)) (or (or P17 ?v_149) ?v_151)) (or (or ?v_76 ?v_81) ?v_39)) (or (or ?v_124 ?v_9) ?v_85)) (or (or ?v_117 ?v_127) P13)) (or (or ?v_55 P16) P2)) (or (or ?v_63 ?v_80) ?v_150)) (or (or ?v_134 ?v_157) P5)) (or (or ?v_107 ?v_82) ?v_80)) (or (or ?v_102 ?v_93) ?v_49)) (or (or ?v_59 ?v_158) ?v_66)) (or (or ?v_132 ?v_18) ?v_144)) (or (or ?v_70 P11) P3)) (or (or ?v_6 ?v_73) ?v_112)) (or (or ?v_101 P17) ?v_138)) (or (or ?v_129 ?v_20) ?v_26)) (or (or P13 P18) ?v_0)) (or (or P24 ?v_159) ?v_96)) (or (or P21 P10) ?v_124)) (or (or ?v_23 ?v_56) ?v_144)) (or (or ?v_2 P14) ?v_138)) (or (or ?v_51 P20) ?v_76)) (or (or ?v_145 ?v_91) ?v_64)) (or (or ?v_68 ?v_88) ?v_59)) (or (or ?v_149 ?v_85) ?v_143)) (or (or ?v_49 ?v_159) ?v_122)) (or (or ?v_59 ?v_134) P14)) (or (or ?v_67 ?v_141) ?v_47)) (or (or ?v_123 ?v_114) ?v_45)) (or (or P19 ?v_105) ?v_104)) (or (or ?v_2 ?v_82) ?v_88)) (or (or ?v_141 P25) ?v_118)) (or (or ?v_103 ?v_47) ?v_78)) (or (or ?v_137 ?v_86) ?v_126)) (or (or ?v_124 ?v_157) ?v_83)) (or (or ?v_90 ?v_95) ?v_73)) (or (or P10 ?v_126) ?v_151)) (or (or P1 ?v_16) ?v_28)) (or (or P28 P2) ?v_124)) (or (or ?v_61 ?v_41) ?v_30)) (or (or P10 ?v_43) ?v_114)) (or (or P19 ?v_23) ?v_73)) (or (or P9 ?v_17) ?v_66)) (or (or ?v_48 ?v_55) P9)) (or (or ?v_20 ?v_87) ?v_55)) (or (or ?v_155 ?v_71) ?v_28)) (or (or ?v_0 P22) ?v_160)) (or (or ?v_31 ?v_104) ?v_101)) (or (or ?v_74 ?v_113) ?v_26)) (or (or P1 ?v_128) P4)) (or (or ?v_106 ?v_80) P12)) (or (or ?v_125 P9) P16)) (or (or ?v_41 ?v_30) ?v_67)) (or (or ?v_152 P20) ?v_121)) (or (or ?v_157 ?v_100) ?v_122)) (or (or ?v_153 ?v_151) ?v_131)) (or (or ?v_77 ?v_36) ?v_69)) (or (or ?v_111 P12) ?v_63)) (or (or P6 ?v_121) ?v_9)) (or (or P11 ?v_137) ?v_101)) (or (or ?v_58 ?v_6) P17)) (or (or ?v_113 ?v_121) ?v_93)) (or (or ?v_86 ?v_92) ?v_147)) (or (or ?v_133 ?v_146) ?v_68)) (or (or ?v_45 ?v_120) ?v_44)) (or (or ?v_127 ?v_102) ?v_44)) (or (or ?v_119 P8) ?v_102)) (or (or ?v_57 P12) ?v_96)) (or (or ?v_97 P3) ?v_136)) (or (or ?v_4 ?v_107) ?v_123)) (or (or P9 ?v_41) ?v_24)) (or (or ?v_106 ?v_84) ?v_32)) (or (or ?v_109 ?v_40) ?v_81)) (or (or ?v_144 ?v_117) ?v_112)) (or (or ?v_118 P13) ?v_82)) (or (or ?v_126 ?v_60) P14)) (or (or ?v_53 ?v_73) ?v_133)) (or (or ?v_138 ?v_53) ?v_91)) (or (or ?v_63 ?v_139) P26)) (or (or ?v_78 ?v_65) ?v_48)) (or (or ?v_76 ?v_154) ?v_10)) (or (or ?v_138 ?v_98) ?v_72)) (or (or ?v_147 ?v_96) ?v_109)) (or (or ?v_72 ?v_105) ?v_130)) (or (or ?v_30 ?v_147) ?v_22)) (or (or ?v_120 ?v_81) P19)) (or (or P4 ?v_87) ?v_19)) (or (or ?v_105 ?v_92) ?v_76)) (or (or P3 ?v_87) ?v_22)) (or (or ?v_78 P25) ?v_96)) (or (or ?v_124 ?v_105) ?v_37)) (or (or ?v_56 ?v_91) ?v_73)) (or (or ?v_10 ?v_103) ?v_33)) (or (or ?v_98 ?v_71) P13)) (or (or P20 ?v_8) ?v_47)) (or (or ?v_89 ?v_65) ?v_23)) (or (or P20 ?v_69) ?v_77)) (or (or ?v_53 ?v_97) ?v_95)) (or (or ?v_47 ?v_77) ?v_13)) (or (or ?v_1 ?v_32) P11)) (or (or ?v_90 ?v_89) P23)) (or (or ?v_3 P8) P15)) (or (or ?v_51 ?v_131) ?v_58)) (or (or ?v_91 ?v_0) ?v_124)) (or (or ?v_147 ?v_37) P19)) (or (or P25 ?v_52) ?v_30)) (or (or ?v_12 ?v_143) ?v_137)) (or (or ?v_80 ?v_88) ?v_12)) (or (or ?v_65 ?v_3) ?v_92)) (or (or P29 P22) ?v_17)) (or (or ?v_117 ?v_73) P15)) (or (or ?v_37 P6) ?v_36)) (or (or ?v_40 ?v_152) ?v_157)))))))))))))))))))))))))))))
(check-sat)
(exit)
